12      2       
7       14      
0       0       0       3       2       3       4       
8       0       10      3       9       10      11      
6       0       6       1       5       
3       5       0       2       7       9       
3       0       0       1       6       
5       1       0       2       7       9       
8       7       0       1       8       
5       0       8       2       10      11      
9       0       10      1       12      
7       0       0       1       12      
9       0       8       1       12      
0       0       0       0       
